HUN,8,6,1
2,5,0,10,1,1,4,21,3,13,5,11
5,7,2,24,4,27,0,6,1,12,3,8
1,27,2,18,0,26,4,22,3,21,5,5
5,28,3,15,1,3,2,14,0,2,4,12
0,28,5,20,4,21,3,24,2,27,1,30
4,18,1,25,5,24,3,8,0,13,2,29
2,12,3,24,1,11,4,26,0,3,5,15
5,1,2,25,3,1,4,26,0,8,1,20
